30605
23,49,62,211,317,351,444,461,553,603,760,778,809,815,935,951,1049,1138,1194,1351,1542,1723,1753,1846,1849,1866,1925,1965,1977,2369,2502,2556,2595,2645,2658,2666,2683,3103,3182,3497,3627,3636,3638,3681,3683,3694,3724,4100,4188,4205,4207,4330,4339,4423,4581,4800,4890,4972
